[2026-03-24T20:39:23.027Z] Pipeline "set_big_6-10_big_6-10_s000_g001" → 2026_03_24_20_39_22_set_big_6-10_big_6-10_s000_g001_max.sol
Set parameter WLSAccessID
Set parameter WLSSecret
Set parameter LicenseID to value 2792458
Set parameter LogFile to value "gurobi.log"
Using license file /root/gurobi.lic
Academic license 2792458 - for non-commercial use only - registered to an___@studenti.unipg.it

Gurobi Optimizer version 13.0.1 build v13.0.1rc0 (linux64 - "Ubuntu 24.04.4 LTS")
Copyright (c) 2026, Gurobi Optimization, LLC

Warning: Duplicate section found (read 'binary') - Is a variable name equal to an LP file format keyword?
Warning: Duplicate section found (read 'binary') - Is a variable name equal to an LP file format keyword?
Warning: Duplicate section found (read 'binary') - Is a variable name equal to an LP file format keyword?
Warning: Duplicate section found (read 'binary') - Is a variable name equal to an LP file format keyword?
Warning: Duplicate section found (read 'binary') - Is a variable name equal to an LP file format keyword?
Warning: Duplicate section found (read 'binary') - Is a variable name equal to an LP file format keyword?
Warning: Duplicate section found (read 'binary') - Is a variable name equal to an LP file format keyword?
Warning: Duplicate section found (read 'binary') - Is a variable name equal to an LP file format keyword?
Warning: Duplicate section found (read 'binary') - Is a variable name equal to an LP file format keyword?
Warning: Duplicate section found (read 'binary') - Is a variable name equal to an LP file format keyword?
Warning: Further warnings of this type will be omitted.
Read LP format model from file /root/bgw/data/uploads/2026_03_24_20_39_22_set_big_6-10_big_6-10_s000_g001_max.lp
Reading time = 0.01 seconds
: 1624 rows, 386 columns, 5459 nonzeros

Using Gurobi shared library /opt/gurobi1301/linux64/lib/libgurobi.so.13.0.1

CPU model: AMD EPYC-Genoa Processor, instruction set [SSE2|AVX|AVX2|AVX512]
Thread count: 16 physical cores, 16 logical processors, using up to 16 threads

Academic license 2792458 - for non-commercial use only - registered to an___@studenti.unipg.it
Optimize a model with 1624 rows, 386 columns and 5459 nonzeros (Max)
Model fingerprint: 0x6074688a
Model has 286 linear objective coefficients
Variable types: 296 continuous, 90 integer (90 binary)
Coefficient statistics:
  Matrix range     [1e+00, 1e+01]
  Objective range  [1e+00, 1e+00]
  Bounds range     [1e+00, 1e+00]
  RHS range        [1e+00, 1e+01]

Found heuristic solution: objective 286.0000000
Presolve removed 1296 rows and 292 columns
Presolve time: 0.01s
Presolved: 328 rows, 94 columns, 1054 nonzeros
Variable types: 0 continuous, 94 integer (84 binary)
Found heuristic solution: objective 735.0000000

Root relaxation: objective 2.463000e+03, 74 iterations, 0.00 seconds (0.00 work units)

    Nodes    |    Current Node    |     Objective Bounds      |     Work
 Expl Unexpl |  Obj  Depth IntInf | Incumbent    BestBd   Gap | It/Node Time

     0     0 2463.00000    0   41  735.00000 2463.00000   235%     -    0s
H    0     0                     751.0000000 2463.00000   228%     -    0s
H    0     0                     774.0000000 2463.00000   218%     -    0s
H    0     0                     775.0000000 2463.00000   218%     -    0s
H    0     0                     805.0000000 2463.00000   206%     -    0s
     0     0 2463.00000    0   52  805.00000 2463.00000   206%     -    0s
     0     0 2463.00000    0   41  805.00000 2463.00000   206%     -    0s
     0     0 2463.00000    0   41  805.00000 2463.00000   206%     -    0s
     0     0 2463.00000    0   51  805.00000 2463.00000   206%     -    0s
     0     0 2463.00000    0   51  805.00000 2463.00000   206%     -    0s
     0     0 2463.00000    0   44  805.00000 2463.00000   206%     -    0s
H    0     0                     813.0000000 2463.00000   203%     -    0s
     0     0 2463.00000    0   43  813.00000 2463.00000   203%     -    0s
     0     0 2463.00000    0   43  813.00000 2463.00000   203%     -    0s
     0     0 2463.00000    0   55  813.00000 2463.00000   203%     -    0s
     0     0 2463.00000    0   44  813.00000 2463.00000   203%     -    0s
     0     0 2452.50000    0   44  813.00000 2452.50000   202%     -    0s
     0     0 2451.25000    0   55  813.00000 2451.25000   202%     -    0s
     0     0 2451.25000    0   54  813.00000 2451.25000   202%     -    0s
     0     0 2438.25000    0   54  813.00000 2438.25000   200%     -    0s
     0     0 2438.25000    0   44  813.00000 2438.25000   200%     -    0s
H    0     0                     821.0000000 2438.25000   197%     -    0s
     0     2 2438.25000    0   44  821.00000 2438.25000   197%     -    0s
H   17    26                     829.0000000 2438.25000   194%  27.5    0s
H 3052  1843                     833.0000000 2308.18750   177%  11.5    0s

Cutting planes:
  Gomory: 11
  Clique: 1
  MIR: 2
  Flow cover: 12
  Inf proof: 3
  Zero half: 6

Explored 155490 nodes (1162076 simplex iterations) in 3.19 seconds (3.64 work units)
Thread count was 16 (of 16 available processors)

Solution count 10: 833 829 821 ... 286

Optimal solution found (tolerance 1.00e-04)
Best objective 8.330000000000e+02, best bound 8.330000000000e+02, gap 0.0000%

Wrote result file '/root/bgw/data/results/2026_03_24_20_39_22_set_big_6-10_big_6-10_s000_g001_max.sol'

